networks/zoo_131_1716/zoo_131_1716-lower.txt
Number of groups: 59
Flow 1: {1 4 0} {4 2 0} {2 68 0} 
Flow 2: {62 3 0} {3 69 0} 
Flow 2: {4 62 0} Flow 3: {1 7 0} {7 5 0} {5 71 0} 
Flow 4: {4 6 0} {6 72 0} 
Flow 5: {7 73 0} 
Flow 6: {2 46 0} {46 9 0} {9 75 0} 
Flow 7: {46 10 0} {10 76 0} 
Flow 8: {4 11 0} {11 77 0} 
Flow 9: {1 12 0} {12 78 0} 
Flow 10: {2 20 0} {20 13 0} {13 79 0} 
Flow 11: {20 16 0} {16 82 0} 
Flow 12: {2 19 0} {19 17 0} {17 83 0} 
Flow 13: {17 18 0} {18 84 0} 
Flow 14: {19 85 0} 
Flow 15: {20 86 0} 
Flow 16: {2 21 0} {21 87 0} 
Flow 17: {5 23 0} {23 89 0} 
Flow 18: {5 24 0} {24 90 0} 
Flow 19: {46 25 0} {25 91 0} 
Flow 20: {46 26 0} {26 92 0} 
Flow 21: {46 27 0} {27 93 0} 
Flow 22: {46 28 0} {28 94 0} 
Flow 23: {20 30 0} {30 96 0} 
Flow 24: {20 31 0} {31 97 0} 
Flow 25: {26 32 0} {32 98 0} 
Flow 26: {26 33 0} {33 99 0} 
Flow 27: {26 34 0} {34 100 0} 
Flow 28: {46 36 0} {36 102 0} 
Flow 29: {46 37 0} {37 103 0} 
Flow 30: {19 38 0} {38 104 0} 
Flow 31: {17 39 0} {39 105 0} 
Flow 32: {21 42 0} {42 108 0} 
Flow 33: {21 43 0} {43 109 0} 
Flow 34: {20 44 0} {44 110 0} 
Flow 35: {21 45 0} {45 111 0} 
Flow 36: {46 112 0} 
Flow 37: {4 49 0} {49 115 0} 
Flow 38: {6 50 0} {50 116 0} 
Flow 39: {1 51 0} {51 117 0} 
Flow 40: {7 52 0} {52 118 0} 
Flow 41: {7 53 0} {53 119 0} 
Flow 42: {11 54 0} {54 120 0} 
Flow 43: {11 55 0} {55 121 0} 
Flow 44: {7 61 0} {61 56 0} {56 122 0} 
Flow 45: {61 60 0} {60 57 0} {57 123 0} 
Flow 46: {62 58 0} {58 124 0} 
Flow 47: {62 59 0} {59 125 0} 
Flow 48: {60 126 0} 
Flow 49: {61 127 0} 
Flow 50: {62 128 0} 
Flow 51: {46 63 0} {63 129 0} 
Flow 52: {61 64 0} {64 130 0} 
Flow 53: {60 65 0} {65 131 0} 
Flow 54: {4 1 0} {1 67 0} 
Flow 54: {2 4 0} Flow 55: {2 62 0} Flow 56: {4 70 0} 
Flow 57: {2 7 0} Flow 86: {19 41 0} {41 107 0} 
Flow 109: {3 62 0} {62 4 0} Flow 110: {62 2 0} Flow 116: {59 60 0} Flow 117: {62 61 0} Flow 130: {20 15 0} {15 81 0} 
Flow 175: {5 7 0} {7 1 0} Flow 176: {7 2 0} Flow 182: {7 11 0} Flow 252: {20 29 0} {29 95 0} 
Flow 268: {7 47 0} {47 113 0} 
Flow 286: {8 2 0} Flow 288: {8 5 0} Flow 298: {9 46 0} {46 2 0} Flow 306: {46 20 0} Flow 315: {26 17 0} {17 60 0} Flow 318: {10 46 0} Flow 357: {11 4 0} Flow 360: {11 7 0} Flow 395: {12 1 0} Flow 420: {13 20 0} {20 2 0} Flow 427: {20 26 0} Flow 428: {20 46 0} Flow 432: {14 20 0} Flow 444: {15 20 0} Flow 453: {20 21 0} Flow 464: {16 20 0} Flow 496: {17 19 0} {19 2 0} Flow 502: {17 26 0} {26 46 0} Flow 506: {26 20 0} Flow 513: {26 25 0} Flow 537: {60 61 0} Flow 540: {60 59 0} Flow 547: {18 17 0} Flow 668: {21 2 0} Flow 677: {21 20 0} Flow 712: {22 2 0} Flow 723: {23 5 0} Flow 763: {25 46 0} Flow 765: {25 26 0} Flow 821: {28 46 0} Flow 833: {29 20 0} Flow 838: {30 20 0} Flow 849: {31 20 0} Flow 875: {33 26 0} Flow 887: {34 26 0} Flow 898: {35 25 0} Flow 929: {37 46 0} Flow 948: {38 19 0} Flow 979: {39 17 0} Flow 998: {40 19 0} Flow 1034: {41 19 0} Flow 1073: {42 21 0} Flow 1108: {43 21 0} Flow 1146: {44 20 0} Flow 1160: {45 21 0} Flow 1242: {47 7 0} Flow 1253: {49 4 0} Flow 1278: {50 6 0} {6 4 0} Flow 1319: {51 1 0} Flow 1356: {52 7 0} Flow 1390: {53 7 0} Flow 1416: {54 11 0} Flow 1428: {55 11 0} Flow 1469: {56 61 0} {61 7 0} Flow 1471: {61 62 0} Flow 1478: {60 17 0} Flow 1509: {59 62 0} Flow 1654: {63 46 0} Flow 1686: {64 61 0} Flow 1695: {65 60 0} Flow 1706: {66 60 0} Time taken running everything: 1 seconds
